p cnf 250 3119
1 2 3 4 5 0
6 7 8 9 10 0
11 12 13 14 15 0
16 17 18 19 20 0
21 22 23 24 25 0
26 27 28 29 30 0
31 32 33 34 35 0
36 37 38 39 40 0
41 42 43 44 45 0
46 47 48 49 50 0
51 52 53 54 55 0
56 57 58 59 60 0
61 62 63 64 65 0
66 67 68 69 70 0
71 72 73 74 75 0
76 77 78 79 80 0
81 82 83 84 85 0
86 87 88 89 90 0
91 92 93 94 95 0
96 97 98 99 100 0
101 102 103 104 105 0
106 107 108 109 110 0
111 112 113 114 115 0
116 117 118 119 120 0
121 122 123 124 125 0
126 127 128 129 130 0
131 132 133 134 135 0
136 137 138 139 140 0
141 142 143 144 145 0
146 147 148 149 150 0
151 152 153 154 155 0
156 157 158 159 160 0
161 162 163 164 165 0
166 167 168 169 170 0
171 172 173 174 175 0
176 177 178 179 180 0
181 182 183 184 185 0
186 187 188 189 190 0
191 192 193 194 195 0
196 197 198 199 200 0
201 202 203 204 205 0
206 207 208 209 210 0
211 212 213 214 215 0
216 217 218 219 220 0
221 222 223 224 225 0
226 227 228 229 230 0
231 232 233 234 235 0
236 237 238 239 240 0
241 242 243 244 245 0
246 247 248 249 250 0
-1 -2 0
-1 -3 0
-1 -4 0
-1 -5 0
-2 -3 0
-2 -4 0
-2 -5 0
-3 -4 0
-3 -5 0
-4 -5 0
-6 -7 0
-6 -8 0
-6 -9 0
-6 -10 0
-7 -8 0
-7 -9 0
-7 -10 0
-8 -9 0
-8 -10 0
-9 -10 0
-11 -12 0
-11 -13 0
-11 -14 0
-11 -15 0
-12 -13 0
-12 -14 0
-12 -15 0
-13 -14 0
-13 -15 0
-14 -15 0
-16 -17 0
-16 -18 0
-16 -19 0
-16 -20 0
-17 -18 0
-17 -19 0
-17 -20 0
-18 -19 0
-18 -20 0
-19 -20 0
-21 -22 0
-21 -23 0
-21 -24 0
-21 -25 0
-22 -23 0
-22 -24 0
-22 -25 0
-23 -24 0
-23 -25 0
-24 -25 0
-26 -27 0
-26 -28 0
-26 -29 0
-26 -30 0
-27 -28 0
-27 -29 0
-27 -30 0
-28 -29 0
-28 -30 0
-29 -30 0
-31 -32 0
-31 -33 0
-31 -34 0
-31 -35 0
-32 -33 0
-32 -34 0
-32 -35 0
-33 -34 0
-33 -35 0
-34 -35 0
-36 -37 0
-36 -38 0
-36 -39 0
-36 -40 0
-37 -38 0
-37 -39 0
-37 -40 0
-38 -39 0
-38 -40 0
-39 -40 0
-41 -42 0
-41 -43 0
-41 -44 0
-41 -45 0
-42 -43 0
-42 -44 0
-42 -45 0
-43 -44 0
-43 -45 0
-44 -45 0
-46 -47 0
-46 -48 0
-46 -49 0
-46 -50 0
-47 -48 0
-47 -49 0
-47 -50 0
-48 -49 0
-48 -50 0
-49 -50 0
-51 -52 0
-51 -53 0
-51 -54 0
-51 -55 0
-52 -53 0
-52 -54 0
-52 -55 0
-53 -54 0
-53 -55 0
-54 -55 0
-56 -57 0
-56 -58 0
-56 -59 0
-56 -60 0
-57 -58 0
-57 -59 0
-57 -60 0
-58 -59 0
-58 -60 0
-59 -60 0
-61 -62 0
-61 -63 0
-61 -64 0
-61 -65 0
-62 -63 0
-62 -64 0
-62 -65 0
-63 -64 0
-63 -65 0
-64 -65 0
-66 -67 0
-66 -68 0
-66 -69 0
-66 -70 0
-67 -68 0
-67 -69 0
-67 -70 0
-68 -69 0
-68 -70 0
-69 -70 0
-71 -72 0
-71 -73 0
-71 -74 0
-71 -75 0
-72 -73 0
-72 -74 0
-72 -75 0
-73 -74 0
-73 -75 0
-74 -75 0
-76 -77 0
-76 -78 0
-76 -79 0
-76 -80 0
-77 -78 0
-77 -79 0
-77 -80 0
-78 -79 0
-78 -80 0
-79 -80 0
-81 -82 0
-81 -83 0
-81 -84 0
-81 -85 0
-82 -83 0
-82 -84 0
-82 -85 0
-83 -84 0
-83 -85 0
-84 -85 0
-86 -87 0
-86 -88 0
-86 -89 0
-86 -90 0
-87 -88 0
-87 -89 0
-87 -90 0
-88 -89 0
-88 -90 0
-89 -90 0
-91 -92 0
-91 -93 0
-91 -94 0
-91 -95 0
-92 -93 0
-92 -94 0
-92 -95 0
-93 -94 0
-93 -95 0
-94 -95 0
-96 -97 0
-96 -98 0
-96 -99 0
-96 -100 0
-97 -98 0
-97 -99 0
-97 -100 0
-98 -99 0
-98 -100 0
-99 -100 0
-101 -102 0
-101 -103 0
-101 -104 0
-101 -105 0
-102 -103 0
-102 -104 0
-102 -105 0
-103 -104 0
-103 -105 0
-104 -105 0
-106 -107 0
-106 -108 0
-106 -109 0
-106 -110 0
-107 -108 0
-107 -109 0
-107 -110 0
-108 -109 0
-108 -110 0
-109 -110 0
-111 -112 0
-111 -113 0
-111 -114 0
-111 -115 0
-112 -113 0
-112 -114 0
-112 -115 0
-113 -114 0
-113 -115 0
-114 -115 0
-116 -117 0
-116 -118 0
-116 -119 0
-116 -120 0
-117 -118 0
-117 -119 0
-117 -120 0
-118 -119 0
-118 -120 0
-119 -120 0
-121 -122 0
-121 -123 0
-121 -124 0
-121 -125 0
-122 -123 0
-122 -124 0
-122 -125 0
-123 -124 0
-123 -125 0
-124 -125 0
-126 -127 0
-126 -128 0
-126 -129 0
-126 -130 0
-127 -128 0
-127 -129 0
-127 -130 0
-128 -129 0
-128 -130 0
-129 -130 0
-131 -132 0
-131 -133 0
-131 -134 0
-131 -135 0
-132 -133 0
-132 -134 0
-132 -135 0
-133 -134 0
-133 -135 0
-134 -135 0
-136 -137 0
-136 -138 0
-136 -139 0
-136 -140 0
-137 -138 0
-137 -139 0
-137 -140 0
-138 -139 0
-138 -140 0
-139 -140 0
-141 -142 0
-141 -143 0
-141 -144 0
-141 -145 0
-142 -143 0
-142 -144 0
-142 -145 0
-143 -144 0
-143 -145 0
-144 -145 0
-146 -147 0
-146 -148 0
-146 -149 0
-146 -150 0
-147 -148 0
-147 -149 0
-147 -150 0
-148 -149 0
-148 -150 0
-149 -150 0
-151 -152 0
-151 -153 0
-151 -154 0
-151 -155 0
-152 -153 0
-152 -154 0
-152 -155 0
-153 -154 0
-153 -155 0
-154 -155 0
-156 -157 0
-156 -158 0
-156 -159 0
-156 -160 0
-157 -158 0
-157 -159 0
-157 -160 0
-158 -159 0
-158 -160 0
-159 -160 0
-161 -162 0
-161 -163 0
-161 -164 0
-161 -165 0
-162 -163 0
-162 -164 0
-162 -165 0
-163 -164 0
-163 -165 0
-164 -165 0
-166 -167 0
-166 -168 0
-166 -169 0
-166 -170 0
-167 -168 0
-167 -169 0
-167 -170 0
-168 -169 0
-168 -170 0
-169 -170 0
-171 -172 0
-171 -173 0
-171 -174 0
-171 -175 0
-172 -173 0
-172 -174 0
-172 -175 0
-173 -174 0
-173 -175 0
-174 -175 0
-176 -177 0
-176 -178 0
-176 -179 0
-176 -180 0
-177 -178 0
-177 -179 0
-177 -180 0
-178 -179 0
-178 -180 0
-179 -180 0
-181 -182 0
-181 -183 0
-181 -184 0
-181 -185 0
-182 -183 0
-182 -184 0
-182 -185 0
-183 -184 0
-183 -185 0
-184 -185 0
-186 -187 0
-186 -188 0
-186 -189 0
-186 -190 0
-187 -188 0
-187 -189 0
-187 -190 0
-188 -189 0
-188 -190 0
-189 -190 0
-191 -192 0
-191 -193 0
-191 -194 0
-191 -195 0
-192 -193 0
-192 -194 0
-192 -195 0
-193 -194 0
-193 -195 0
-194 -195 0
-196 -197 0
-196 -198 0
-196 -199 0
-196 -200 0
-197 -198 0
-197 -199 0
-197 -200 0
-198 -199 0
-198 -200 0
-199 -200 0
-201 -202 0
-201 -203 0
-201 -204 0
-201 -205 0
-202 -203 0
-202 -204 0
-202 -205 0
-203 -204 0
-203 -205 0
-204 -205 0
-206 -207 0
-206 -208 0
-206 -209 0
-206 -210 0
-207 -208 0
-207 -209 0
-207 -210 0
-208 -209 0
-208 -210 0
-209 -210 0
-211 -212 0
-211 -213 0
-211 -214 0
-211 -215 0
-212 -213 0
-212 -214 0
-212 -215 0
-213 -214 0
-213 -215 0
-214 -215 0
-216 -217 0
-216 -218 0
-216 -219 0
-216 -220 0
-217 -218 0
-217 -219 0
-217 -220 0
-218 -219 0
-218 -220 0
-219 -220 0
-221 -222 0
-221 -223 0
-221 -224 0
-221 -225 0
-222 -223 0
-222 -224 0
-222 -225 0
-223 -224 0
-223 -225 0
-224 -225 0
-226 -227 0
-226 -228 0
-226 -229 0
-226 -230 0
-227 -228 0
-227 -229 0
-227 -230 0
-228 -229 0
-228 -230 0
-229 -230 0
-231 -232 0
-231 -233 0
-231 -234 0
-231 -235 0
-232 -233 0
-232 -234 0
-232 -235 0
-233 -234 0
-233 -235 0
-234 -235 0
-236 -237 0
-236 -238 0
-236 -239 0
-236 -240 0
-237 -238 0
-237 -239 0
-237 -240 0
-238 -239 0
-238 -240 0
-239 -240 0
-241 -242 0
-241 -243 0
-241 -244 0
-241 -245 0
-242 -243 0
-242 -244 0
-242 -245 0
-243 -244 0
-243 -245 0
-244 -245 0
-246 -247 0
-246 -248 0
-246 -249 0
-246 -250 0
-247 -248 0
-247 -249 0
-247 -250 0
-248 -249 0
-248 -250 0
-249 -250 0
-2 -60 0
-3 -59 0
-1 -56 0
-2 -58 0
-1 -60 0
-1 -59 0
-3 -58 0
-3 -75 0
-1 -73 0
-5 -71 0
-4 -75 0
-4 -71 0
-2 -74 0
-4 -72 0
-4 -85 0
-1 -82 0
-5 -82 0
-3 -85 0
-1 -83 0
-2 -83 0
-2 -82 0
-4 -94 0
-3 -91 0
-4 -91 0
-4 -92 0
-2 -93 0
-1 -91 0
-5 -94 0
-4 -108 0
-2 -110 0
-5 -110 0
-5 -106 0
-1 -110 0
-1 -107 0
-2 -107 0
-5 -117 0
-1 -116 0
-1 -118 0
-3 -118 0
-4 -118 0
-5 -120 0
-4 -120 0
-3 -129 0
-4 -130 0
-5 -130 0
-1 -129 0
-2 -126 0
-2 -128 0
-2 -129 0
-4 -141 0
-3 -141 0
-4 -145 0
-3 -142 0
-3 -145 0
-5 -142 0
-1 -142 0
-4 -159 0
-5 -156 0
-5 -158 0
-2 -156 0
-1 -158 0
-1 -159 0
-1 -157 0
-5 -185 0
-1 -185 0
-1 -184 0
-4 -185 0
-4 -183 0
-5 -183 0
-3 -185 0
-1 -206 0
-5 -210 0
-3 -208 0
-1 -209 0
-5 -209 0
-1 -210 0
-5 -208 0
-3 -220 0
-3 -217 0
-1 -220 0
-2 -220 0
-2 -219 0
-3 -219 0
-2 -216 0
-8 -30 0
-8 -27 0
-6 -27 0
-9 -28 0
-8 -26 0
-9 -30 0
-8 -28 0
-8 -34 0
-9 -31 0
-8 -35 0
-6 -31 0
-8 -33 0
-8 -32 0
-7 -31 0
-6 -43 0
-10 -42 0
-7 -42 0
-8 -41 0
-6 -44 0
-8 -43 0
-7 -45 0
-6 -52 0
-7 -55 0
-10 -55 0
-10 -53 0
-9 -55 0
-8 -53 0
-9 -51 0
-8 -65 0
-8 -63 0
-9 -63 0
-8 -61 0
-9 -62 0
-7 -64 0
-9 -64 0
-8 -115 0
-8 -111 0
-10 -111 0
-9 -115 0
-6 -115 0
-8 -113 0
-6 -114 0
-7 -116 0
-9 -117 0
-7 -120 0
-10 -118 0
-10 -117 0
-9 -120 0
-6 -119 0
-8 -122 0
-6 -125 0
-7 -123 0
-7 -122 0
-6 -124 0
-8 -123 0
-9 -121 0
-9 -129 0
-7 -127 0
-9 -130 0
-8 -129 0
-6 -127 0
-6 -126 0
-6 -128 0
-10 -135 0
-8 -132 0
-9 -135 0
-10 -133 0
-8 -134 0
-6 -131 0
-8 -133 0
-9 -147 0
-10 -146 0
-6 -150 0
-7 -146 0
-7 -149 0
-10 -147 0
-8 -149 0
-8 -154 0
-6 -155 0
-7 -152 0
-8 -153 0
-6 -152 0
-6 -153 0
-9 -152 0
-10 -160 0
-8 -157 0
-9 -156 0
-10 -157 0
-6 -159 0
-6 -157 0
-6 -160 0
-10 -169 0
-9 -167 0
-10 -167 0
-9 -168 0
-7 -168 0
-8 -170 0
-6 -166 0
-7 -210 0
-7 -207 0
-8 -209 0
-10 -209 0
-9 -207 0
-8 -207 0
-10 -208 0
-10 -245 0
-6 -244 0
-8 -243 0
-10 -241 0
-6 -243 0
-8 -241 0
-9 -244 0
-14 -20 0
-12 -18 0
-15 -18 0
-11 -17 0
-12 -17 0
-15 -16 0
-15 -17 0
-15 -49 0
-14 -46 0
-12 -49 0
-14 -47 0
-14 -49 0
-12 -50 0
-12 -48 0
-13 -55 0
-12 -55 0
-12 -52 0
-11 -55 0
-13 -54 0
-14 -51 0
-11 -51 0
-13 -61 0
-15 -63 0
-11 -63 0
-15 -62 0
-15 -64 0
-14 -65 0
-14 -62 0
-11 -68 0
-11 -66 0
-13 -66 0
-14 -66 0
-14 -70 0
-12 -66 0
-14 -69 0
-12 -78 0
-11 -76 0
-12 -77 0
-11 -78 0
-13 -79 0
-15 -76 0
-15 -77 0
-12 -114 0
-13 -115 0
-15 -115 0
-12 -111 0
-14 -113 0
-15 -112 0
-13 -111 0
-13 -116 0
-11 -120 0
-12 -116 0
-14 -117 0
-14 -119 0
-15 -117 0
-14 -116 0
-11 -155 0
-11 -151 0
-12 -153 0
-11 -153 0
-12 -154 0
-14 -153 0
-14 -154 0
-15 -160 0
-11 -158 0
-13 -157 0
-15 -156 0
-12 -156 0
-15 -159 0
-14 -158 0
-12 -163 0
-14 -165 0
-11 -162 0
-11 -161 0
-13 -165 0
-11 -165 0
-14 -162 0
-12 -189 0
-11 -189 0
-11 -190 0
-11 -188 0
-12 -190 0
-14 -188 0
-14 -189 0
-11 -200 0
-13 -199 0
-14 -197 0
-15 -196 0
-11 -197 0
-12 -198 0
-12 -197 0
-12 -220 0
-11 -219 0
-15 -220 0
-13 -220 0
-13 -219 0
-11 -217 0
-12 -219 0
-14 -243 0
-15 -242 0
-11 -245 0
-11 -243 0
-13 -243 0
-13 -245 0
-12 -242 0
-16 -52 0
-18 -53 0
-18 -51 0
-16 -54 0
-20 -52 0
-17 -51 0
-17 -53 0
-20 -58 0
-16 -59 0
-18 -60 0
-17 -56 0
-16 -60 0
-17 -59 0
-19 -58 0
-20 -63 0
-16 -65 0
-17 -61 0
-17 -64 0
-20 -64 0
-16 -62 0
-16 -63 0
-17 -68 0
-20 -70 0
-16 -66 0
-18 -70 0
-19 -66 0
-17 -66 0
-20 -67 0
-18 -73 0
-18 -72 0
-19 -72 0
-20 -71 0
-18 -71 0
-20 -74 0
-16 -71 0
-20 -85 0
-16 -84 0
-16 -85 0
-17 -81 0
-16 -83 0
-20 -83 0
-17 -83 0
-20 -114 0
-20 -113 0
-16 -112 0
-17 -113 0
-19 -112 0
-18 -112 0
-16 -113 0
-20 -120 0
-16 -118 0
-18 -117 0
-19 -120 0
-16 -117 0
-17 -116 0
-19 -116 0
-19 -129 0
-18 -129 0
-16 -126 0
-16 -128 0
-18 -126 0
-18 -127 0
-16 -130 0
-17 -133 0
-20 -135 0
-16 -134 0
-16 -135 0
-20 -132 0
-18 -132 0
-19 -133 0
-20 -139 0
-19 -137 0
-16 -136 0
-20 -136 0
-20 -138 0
-17 -138 0
-19 -140 0
-19 -147 0
-18 -149 0
-19 -149 0
-17 -146 0
-16 -150 0
-17 -149 0
-20 -149 0
-20 -154 0
-18 -151 0
-19 -153 0
-20 -153 0
-17 -154 0
-18 -155 0
-19 -152 0
-17 -166 0
-18 -168 0
-17 -170 0
-20 -170 0
-19 -166 0
-18 -166 0
-17 -167 0
-16 -194 0
-16 -195 0
-18 -195 0
-19 -191 0
-18 -193 0
-16 -193 0
-17 -194 0
-20 -204 0
-18 -203 0
-17 -203 0
-20 -201 0
-19 -202 0
-20 -205 0
-17 -201 0
-18 -208 0
-16 -209 0
-18 -210 0
-16 -210 0
-17 -209 0
-16 -207 0
-18 -207 0
-18 -246 0
-16 -249 0
-19 -246 0
-19 -249 0
-20 -246 0
-20 -250 0
-19 -247 0
-21 -48 0
-24 -46 0
-21 -47 0
-25 -49 0
-25 -48 0
-21 -49 0
-23 -50 0
-25 -83 0
-24 -82 0
-23 -85 0
-25 -84 0
-22 -82 0
-25 -81 0
-22 -81 0
-23 -131 0
-25 -132 0
-22 -134 0
-21 -133 0
-21 -134 0
-23 -134 0
-22 -132 0
-25 -147 0
-22 -147 0
-23 -148 0
-23 -150 0
-23 -149 0
-21 -146 0
-22 -149 0
-21 -160 0
-25 -156 0
-22 -159 0
-22 -158 0
-22 -157 0
-22 -160 0
-25 -158 0
-25 -165 0
-24 -161 0
-21 -164 0
-22 -162 0
-22 -164 0
-21 -161 0
-25 -164 0
-21 -176 0
-22 -178 0
-24 -180 0
-23 -179 0
-24 -178 0
-21 -180 0
-24 -179 0
-21 -199 0
-22 -197 0
-22 -199 0
-22 -200 0
-23 -199 0
-21 -198 0
-25 -197 0
-25 -221 0
-25 -224 0
-22 -224 0
-24 -223 0
-21 -221 0
-23 -225 0
-25 -222 0
-27 -34 0
-26 -35 0
-27 -31 0
-29 -34 0
-28 -33 0
-27 -35 0
-30 -32 0
-28 -36 0
-30 -38 0
-27 -36 0
-29 -40 0
-27 -40 0
-26 -36 0
-29 -37 0
-29 -59 0
-30 -57 0
-30 -56 0
-28 -56 0
-26 -58 0
-30 -60 0
-26 -57 0
-30 -61 0
-29 -65 0
-28 -62 0
-29 -63 0
-30 -62 0
-27 -61 0
-27 -63 0
-29 -76 0
-30 -76 0
-30 -78 0
-27 -80 0
-30 -80 0
-28 -79 0
-29 -78 0
-29 -87 0
-27 -88 0
-28 -88 0
-27 -87 0
-28 -86 0
-26 -87 0
-28 -89 0
-26 -93 0
-29 -92 0
-27 -91 0
-28 -95 0
-26 -92 0
-29 -94 0
-28 -93 0
-28 -113 0
-27 -115 0
-30 -113 0
-30 -111 0
-28 -112 0
-28 -115 0
-30 -112 0
-27 -163 0
-27 -162 0
-27 -161 0
-30 -165 0
-26 -165 0
-28 -161 0
-29 -163 0
-27 -173 0
-29 -173 0
-28 -172 0
-30 -173 0
-27 -172 0
-28 -174 0
-28 -171 0
-29 -220 0
-30 -218 0
-27 -216 0
-27 -219 0
-29 -218 0
-29 -217 0
-26 -218 0
-27 -245 0
-28 -242 0
-29 -242 0
-27 -243 0
-26 -245 0
-28 -241 0
-29 -244 0
-31 -39 0
-32 -37 0
-35 -37 0
-31 -38 0
-34 -40 0
-31 -37 0
-32 -38 0
-32 -48 0
-33 -48 0
-34 -46 0
-32 -46 0
-33 -47 0
-34 -48 0
-34 -47 0
-33 -52 0
-31 -55 0
-31 -52 0
-35 -53 0
-33 -53 0
-32 -53 0
-35 -52 0
-31 -85 0
-34 -81 0
-35 -85 0
-31 -84 0
-32 -83 0
-32 -84 0
-35 -83 0
-33 -89 0
-34 -90 0
-34 -89 0
-35 -90 0
-35 -88 0
-34 -87 0
-33 -86 0
-33 -111 0
-31 -111 0
-33 -112 0
-33 -113 0
-31 -112 0
-35 -111 0
-33 -114 0
-35 -116 0
-32 -119 0
-32 -117 0
-34 -117 0
-31 -116 0
-31 -118 0
-33 -118 0
-34 -126 0
-35 -129 0
-31 -129 0
-31 -128 0
-32 -129 0
-34 -130 0
-31 -130 0
-33 -149 0
-35 -149 0
-32 -146 0
-31 -150 0
-31 -147 0
-31 -146 0
-31 -148 0
-31 -160 0
-32 -159 0
-34 -160 0
-33 -158 0
-32 -158 0
-32 -156 0
-35 -157 0
-34 -174 0
-34 -175 0
-32 -173 0
-34 -171 0
-35 -172 0
-32 -174 0
-35 -174 0
-31 -182 0
-34 -185 0
-32 -181 0
-32 -182 0
-32 -185 0
-35 -182 0
-34 -184 0
-31 -194 0
-34 -191 0
-33 -194 0
-34 -195 0
-34 -193 0
-34 -192 0
-31 -193 0
-33 -209 0
-33 -210 0
-35 -210 0
-32 -209 0
-35 -209 0
-34 -206 0
-31 -210 0
-35 -212 0
-34 -214 0
-35 -214 0
-31 -213 0
-32 -212 0
-31 -211 0
-32 -215 0
-31 -217 0
-35 -216 0
-32 -216 0
-34 -218 0
-35 -220 0
-31 -218 0
-33 -220 0
-33 -239 0
-34 -240 0
-31 -240 0
-34 -239 0
-31 -237 0
-31 -236 0
-32 -236 0
-39 -49 0
-40 -47 0
-38 -50 0
-39 -48 0
-39 -47 0
-40 -48 0
-39 -46 0
-36 -52 0
-37 -55 0
-39 -54 0
-38 -51 0
-40 -51 0
-37 -51 0
-39 -51 0
-40 -62 0
-40 -64 0
-39 -64 0
-37 -65 0
-39 -61 0
-37 -61 0
-36 -62 0
-36 -67 0
-38 -69 0
-37 -69 0
-38 -66 0
-40 -68 0
-38 -68 0
-39 -67 0
-36 -80 0
-36 -78 0
-38 -80 0
-40 -78 0
-37 -76 0
-39 -76 0
-39 -77 0
-36 -85 0
-36 -82 0
-38 -85 0
-39 -85 0
-40 -81 0
-37 -83 0
-40 -85 0
-39 -88 0
-37 -90 0
-37 -88 0
-40 -86 0
-36 -86 0
-39 -86 0
-37 -89 0
-40 -136 0
-37 -136 0
-40 -139 0
-36 -140 0
-37 -140 0
-37 -137 0
-37 -139 0
-38 -146 0
-39 -150 0
-37 -150 0
-36 -147 0
-39 -147 0
-37 -149 0
-38 -149 0
-43 -46 0
-45 -47 0
-41 -46 0
-42 -48 0
-43 -48 0
-45 -46 0
-44 -50 0
-45 -54 0
-45 -51 0
-43 -51 0
-42 -52 0
-41 -51 0
-42 -53 0
-42 -51 0
-44 -75 0
-44 -71 0
-45 -71 0
-41 -71 0
-45 -72 0
-42 -73 0
-43 -73 0
-41 -88 0
-45 -90 0
-41 -90 0
-44 -89 0
-43 -87 0
-43 -89 0
-42 -89 0
-44 -108 0
-45 -110 0
-44 -106 0
-44 -107 0
-45 -108 0
-42 -106 0
-42 -109 0
-45 -122 0
-42 -124 0
-41 -125 0
-45 -123 0
-44 -122 0
-45 -125 0
-44 -125 0
-43 -128 0
-45 -128 0
-42 -129 0
-43 -127 0
-41 -126 0
-44 -130 0
-43 -130 0
-45 -133 0
-41 -132 0
-44 -131 0
-41 -133 0
-43 -134 0
-42 -132 0
-45 -135 0
-42 -145 0
-42 -143 0
-45 -143 0
-45 -145 0
-41 -144 0
-44 -144 0
-41 -145 0
-44 -150 0
-41 -147 0
-43 -146 0
-44 -148 0
-42 -146 0
-42 -150 0
-44 -146 0
-44 -156 0
-45 -158 0
-45 -160 0
-42 -160 0
-43 -158 0
-44 -160 0
-42 -159 0
-45 -164 0
-42 -165 0
-45 -163 0
-42 -161 0
-44 -162 0
-41 -161 0
-42 -164 0
-41 -179 0
-44 -176 0
-45 -179 0
-45 -176 0
-42 -176 0
-44 -179 0
-42 -179 0
-41 -192 0
-42 -193 0
-42 -191 0
-41 -193 0
-43 -193 0
-44 -195 0
-45 -194 0
-41 -207 0
-42 -208 0
-44 -210 0
-43 -208 0
-42 -210 0
-44 -208 0
-45 -206 0
-45 -250 0
-42 -250 0
-43 -247 0
-44 -250 0
-41 -248 0
-42 -247 0
-45 -249 0
-49 -55 0
-48 -54 0
-47 -53 0
-49 -53 0
-46 -51 0
-48 -52 0
-49 -51 0
-46 -67 0
-50 -70 0
-48 -70 0
-48 -68 0
-46 -66 0
-47 -67 0
-47 -70 0
-46 -79 0
-49 -77 0
-47 -80 0
-46 -77 0
-46 -78 0
-50 -80 0
-47 -78 0
-49 -96 0
-46 -96 0
-50 -96 0
-50 -97 0
-49 -99 0
-49 -98 0
-47 -97 0
-49 -111 0
-49 -112 0
-48 -114 0
-50 -111 0
-50 -115 0
-49 -115 0
-47 -115 0
-47 -140 0
-46 -140 0
-46 -137 0
-50 -137 0
-50 -139 0
-47 -139 0
-48 -137 0
-49 -166 0
-50 -166 0
-50 -169 0
-46 -170 0
-48 -167 0
-48 -168 0
-50 -167 0
-50 -201 0
-49 -201 0
-48 -201 0
-46 -205 0
-50 -204 0
-46 -202 0
-47 -205 0
-48 -226 0
-50 -228 0
-47 -229 0
-48 -227 0
-49 -228 0
-46 -230 0
-49 -230 0
-47 -235 0
-46 -231 0
-48 -231 0
-48 -232 0
-50 -234 0
-50 -232 0
-47 -234 0
-55 -57 0
-55 -60 0
-51 -60 0
-54 -60 0
-54 -58 0
-51 -56 0
-51 -59 0
-51 -70 0
-52 -68 0
-55 -68 0
-55 -69 0
-54 -69 0
-54 -68 0
-55 -70 0
-53 -73 0
-51 -75 0
-52 -71 0
-53 -71 0
-55 -72 0
-53 -74 0
-51 -73 0
-55 -80 0
-54 -79 0
-53 -76 0
-51 -80 0
-51 -76 0
-55 -76 0
-52 -80 0
-52 -125 0
-55 -122 0
-55 -125 0
-54 -123 0
-53 -124 0
-55 -121 0
-51 -124 0
-55 -126 0
-51 -127 0
-52 -129 0
-51 -126 0
-55 -128 0
-55 -129 0
-52 -128 0
-52 -147 0
-52 -149 0
-52 -150 0
-51 -148 0
-51 -146 0
-51 -150 0
-55 -148 0
-51 -211 0
-55 -213 0
-54 -211 0
-55 -215 0
-55 -211 0
-53 -214 0
-54 -213 0
-59 -158 0
-58 -159 0
-57 -158 0
-56 -156 0
-60 -157 0
-56 -160 0
-57 -157 0
-58 -194 0
-59 -193 0
-58 -191 0
-60 -191 0
-58 -195 0
-60 -192 0
-58 -193 0
-57 -219 0
-59 -218 0
-56 -218 0
-56 -219 0
-56 -220 0
-60 -219 0
-59 -216 0
-56 -221 0
-60 -225 0
-59 -224 0
-56 -224 0
-57 -223 0
-58 -225 0
-57 -224 0
-58 -240 0
-57 -236 0
-57 -240 0
-60 -240 0
-56 -237 0
-60 -239 0
-57 -238 0
-56 -242 0
-58 -241 0
-59 -241 0
-56 -244 0
-59 -244 0
-58 -242 0
-58 -243 0
-56 -248 0
-57 -250 0
-56 -250 0
-58 -247 0
-58 -248 0
-57 -248 0
-56 -249 0
-62 -82 0
-62 -81 0
-61 -82 0
-65 -82 0
-63 -84 0
-63 -81 0
-63 -83 0
-62 -94 0
-63 -91 0
-61 -95 0
-62 -93 0
-64 -91 0
-63 -94 0
-63 -92 0
-61 -125 0
-65 -123 0
-62 -121 0
-64 -125 0
-65 -125 0
-64 -121 0
-63 -122 0
-64 -155 0
-61 -153 0
-65 -155 0
-64 -154 0
-65 -153 0
-61 -152 0
-63 -153 0
-61 -165 0
-62 -163 0
-63 -163 0
-65 -164 0
-62 -165 0
-61 -164 0
-62 -162 0
-65 -167 0
-61 -167 0
-64 -167 0
-62 -168 0
-62 -167 0
-64 -168 0
-62 -166 0
-65 -185 0
-61 -182 0
-63 -181 0
-61 -183 0
-64 -182 0
-64 -183 0
-62 -182 0
-63 -192 0
-61 -192 0
-65 -193 0
-61 -191 0
-64 -194 0
-62 -192 0
-62 -194 0
-64 -219 0
-62 -220 0
-62 -218 0
-62 -217 0
-65 -217 0
-64 -218 0
-65 -220 0
-63 -226 0
-61 -230 0
-61 -226 0
-63 -230 0
-65 -228 0
-61 -227 0
-65 -226 0
-70 -73 0
-68 -75 0
-69 -71 0
-67 -74 0
-69 -73 0
-68 -74 0
-67 -72 0
-70 -140 0
-67 -140 0
-66 -137 0
-67 -137 0
-69 -139 0
-68 -139 0
-68 -138 0
-67 -154 0
-69 -155 0
-70 -152 0
-69 -154 0
-69 -151 0
-70 -155 0
-69 -153 0
-70 -166 0
-69 -167 0
-67 -169 0
-66 -166 0
-70 -168 0
-68 -170 0
-66 -170 0
-68 -183 0
-66 -181 0
-68 -182 0
-66 -185 0
-67 -183 0
-69 -183 0
-66 -183 0
-70 -209 0
-67 -206 0
-70 -206 0
-67 -210 0
-66 -208 0
-68 -207 0
-68 -206 0
-70 -215 0
-70 -213 0
-66 -213 0
-68 -214 0
-68 -211 0
-70 -214 0
-68 -215 0
-69 -217 0
-68 -217 0
-68 -219 0
-69 -219 0
-67 -220 0
-68 -220 0
-69 -216 0
-70 -231 0
-68 -232 0
-69 -232 0
-68 -231 0
-70 -232 0
-69 -234 0
-67 -231 0
-75 -92 0
-71 -91 0
-73 -94 0
-74 -92 0
-74 -95 0
-74 -91 0
-73 -92 0
-71 -124 0
-71 -121 0
-74 -125 0
-73 -122 0
-71 -122 0
-72 -125 0
-71 -123 0
-74 -143 0
-72 -144 0
-71 -141 0
-74 -145 0
-71 -142 0
-75 -145 0
-75 -144 0
-75 -153 0
-74 -153 0
-75 -155 0
-73 -153 0
-73 -154 0
-74 -152 0
-74 -154 0
-71 -160 0
-73 -156 0
-73 -157 0
-74 -157 0
-73 -159 0
-73 -158 0
-75 -156 0
-72 -179 0
-71 -177 0
-74 -179 0
-74 -178 0
-75 -179 0
-73 -179 0
-75 -178 0
-75 -186 0
-75 -187 0
-73 -189 0
-73 -190 0
-73 -188 0
-72 -189 0
-72 -186 0
-73 -244 0
-72 -242 0
-74 -243 0
-75 -245 0
-71 -245 0
-73 -241 0
-72 -243 0
-79 -83 0
-79 -84 0
-77 -83 0
-79 -81 0
-78 -82 0
-79 -82 0
-76 -85 0
-80 -90 0
-80 -88 0
-77 -88 0
-79 -87 0
-76 -87 0
-79 -90 0
-78 -89 0
-77 -142 0
-80 -141 0
-79 -141 0
-77 -145 0
-79 -144 0
-80 -142 0
-80 -144 0
-77 -157 0
-80 -157 0
-76 -159 0
-76 -158 0
-79 -160 0
-76 -160 0
-80 -156 0
-78 -199 0
-79 -196 0
-80 -199 0
-79 -198 0
-78 -200 0
-78 -197 0
-77 -200 0
-78 -224 0
-78 -221 0
-77 -222 0
-80 -221 0
-79 -224 0
-76 -223 0
-80 -223 0
-79 -245 0
-76 -241 0
-77 -243 0
-80 -245 0
-79 -242 0
-76 -242 0
-80 -241 0
-84 -96 0
-85 -100 0
-81 -99 0
-81 -97 0
-83 -99 0
-82 -99 0
-84 -97 0
-84 -105 0
-83 -105 0
-83 -104 0
-83 -101 0
-83 -103 0
-84 -103 0
-85 -104 0
-82 -132 0
-85 -134 0
-85 -131 0
-83 -132 0
-84 -135 0
-84 -133 0
-85 -135 0
-83 -154 0
-82 -155 0
-83 -153 0
-84 -153 0
-82 -154 0
-82 -152 0
-83 -155 0
-81 -160 0
-81 -157 0
-82 -156 0
-84 -156 0
-82 -157 0
-81 -159 0
-84 -159 0
-85 -165 0
-85 -162 0
-85 -163 0
-82 -161 0
-84 -163 0
-81 -163 0
-82 -163 0
-83 -180 0
-81 -178 0
-83 -179 0
-84 -180 0
-83 -176 0
-85 -177 0
-84 -179 0
-84 -181 0
-85 -182 0
-83 -184 0
-82 -185 0
-85 -185 0
-83 -182 0
-82 -182 0
-83 -190 0
-85 -190 0
-82 -190 0
-81 -187 0
-84 -189 0
-85 -186 0
-82 -186 0
-85 -193 0
-85 -191 0
-81 -194 0
-83 -191 0
-85 -194 0
-81 -193 0
-82 -192 0
-83 -202 0
-81 -201 0
-85 -205 0
-81 -205 0
-84 -202 0
-84 -201 0
-85 -202 0
-81 -208 0
-85 -209 0
-84 -206 0
-82 -207 0
-85 -210 0
-83 -206 0
-84 -208 0
-83 -238 0
-81 -240 0
-82 -240 0
-82 -236 0
-82 -237 0
-81 -237 0
-85 -239 0
-82 -245 0
-85 -241 0
-84 -242 0
-83 -243 0
-85 -245 0
-81 -242 0
-83 -245 0
-90 -91 0
-86 -94 0
-87 -95 0
-90 -95 0
-86 -91 0
-87 -91 0
-88 -94 0
-89 -128 0
-88 -128 0
-90 -126 0
-86 -127 0
-87 -129 0
-89 -130 0
-86 -126 0
-88 -137 0
-87 -138 0
-90 -136 0
-86 -136 0
-87 -139 0
-89 -138 0
-88 -139 0
-88 -184 0
-88 -182 0
-86 -185 0
-87 -185 0
-89 -184 0
-88 -183 0
-87 -181 0
-88 -203 0
-89 -201 0
-87 -201 0
-89 -203 0
-86 -202 0
-87 -204 0
-90 -201 0
-88 -213 0
-88 -215 0
-89 -215 0
-87 -215 0
-87 -213 0
-87 -214 0
-88 -214 0
-90 -223 0
-86 -222 0
-90 -224 0
-89 -221 0
-87 -224 0
-89 -225 0
-86 -225 0
-94 -105 0
-94 -103 0
-93 -104 0
-91 -101 0
-91 -103 0
-93 -102 0
-92 -105 0
-93 -109 0
-95 -110 0
-92 -107 0
-92 -110 0
-92 -109 0
-91 -106 0
-93 -108 0
-91 -121 0
-95 -122 0
-95 -121 0
-94 -125 0
-95 -123 0
-94 -121 0
-91 -125 0
-94 -128 0
-91 -126 0
-92 -128 0
-92 -130 0
-93 -130 0
-92 -127 0
-94 -129 0
-91 -180 0
-93 -180 0
-93 -179 0
-95 -180 0
-91 -179 0
-91 -176 0
-94 -180 0
-91 -190 0
-92 -188 0
-93 -189 0
-91 -189 0
-93 -188 0
-95 -187 0
-92 -189 0
-93 -216 0
-93 -218 0
-94 -217 0
-92 -217 0
-94 -219 0
-92 -218 0
-94 -216 0
-91 -222 0
-94 -221 0
-94 -224 0
-93 -223 0
-91 -221 0
-94 -225 0
-93 -224 0
-95 -230 0
-92 -230 0
-95 -228 0
-93 -227 0
-94 -230 0
-95 -226 0
-92 -229 0
-94 -241 0
-95 -245 0
-92 -242 0
-92 -244 0
-92 -243 0
-94 -244 0
-93 -245 0
-92 -250 0
-91 -248 0
-94 -246 0
-93 -247 0
-95 -246 0
-95 -250 0
-94 -248 0
-99 -107 0
-97 -110 0
-98 -109 0
-100 -109 0
-97 -108 0
-99 -110 0
-100 -107 0
-100 -134 0
-96 -135 0
-99 -135 0
-97 -134 0
-98 -134 0
-100 -131 0
-99 -132 0
-100 -150 0
-96 -148 0
-99 -146 0
-98 -148 0
-97 -148 0
-99 -150 0
-99 -149 0
-98 -160 0
-99 -157 0
-100 -159 0
-97 -158 0
-100 -156 0
-99 -156 0
-96 -157 0
-97 -166 0
-99 -166 0
-97 -167 0
-99 -170 0
-96 -166 0
-99 -168 0
-98 -168 0
-98 -215 0
-96 -214 0
-100 -211 0
-98 -211 0
-97 -211 0
-99 -214 0
-97 -213 0
-96 -216 0
-100 -218 0
-99 -219 0
-97 -216 0
-99 -216 0
-96 -219 0
-99 -220 0
-100 -225 0
-99 -221 0
-98 -222 0
-96 -221 0
-97 -222 0
-96 -223 0
-99 -223 0
-97 -248 0
-96 -250 0
-98 -250 0
-97 -249 0
-99 -247 0
-97 -247 0
-100 -249 0
-101 -130 0
-104 -128 0
-104 -127 0
-102 -129 0
-102 -130 0
-102 -128 0
-104 -126 0
-101 -167 0
-101 -170 0
-102 -167 0
-103 -167 0
-104 -170 0
-103 -169 0
-103 -166 0
-102 -224 0
-105 -223 0
-103 -223 0
-103 -224 0
-104 -224 0
-103 -221 0
-105 -222 0
-108 -113 0
-109 -115 0
-110 -114 0
-107 -114 0
-107 -113 0
-106 -111 0
-107 -112 0
-110 -119 0
-106 -119 0
-108 -116 0
-107 -119 0
-110 -116 0
-109 -119 0
-108 -120 0
-109 -121 0
-109 -123 0
-108 -123 0
-107 -123 0
-106 -125 0
-109 -124 0
-106 -124 0
-110 -135 0
-106 -134 0
-107 -135 0
-106 -133 0
-110 -134 0
-109 -134 0
-107 -134 0
-107 -154 0
-110 -152 0
-106 -152 0
-108 -152 0
-107 -153 0
-108 -153 0
-107 -151 0
-108 -187 0
-110 -189 0
-109 -188 0
-106 -186 0
-110 -186 0
-110 -188 0
-110 -187 0
-109 -200 0
-109 -196 0
-108 -200 0
-109 -197 0
-106 -197 0
-108 -199 0
-106 -199 0
-106 -218 0
-108 -219 0
-108 -216 0
-110 -217 0
-109 -219 0
-108 -218 0
-108 -220 0
-106 -225 0
-108 -225 0
-108 -222 0
-110 -222 0
-106 -223 0
-106 -222 0
-107 -225 0
-106 -231 0
-110 -232 0
-106 -235 0
-106 -232 0
-110 -234 0
-109 -235 0
-107 -232 0
-108 -236 0
-108 -240 0
-107 -237 0
-110 -237 0
-108 -239 0
-107 -240 0
-106 -239 0
-112 -117 0
-114 -118 0
-113 -117 0
-113 -116 0
-112 -119 0
-114 -119 0
-111 -117 0
-111 -121 0
-114 -123 0
-113 -124 0
-113 -123 0
-114 -125 0
-115 -124 0
-114 -122 0
-114 -133 0
-113 -131 0
-115 -135 0
-112 -131 0
-111 -132 0
-114 -132 0
-111 -131 0
-112 -142 0
-114 -142 0
-115 -142 0
-114 -143 0
-111 -145 0
-111 -141 0
-111 -144 0
-115 -149 0
-114 -148 0
-113 -148 0
-115 -147 0
-115 -150 0
-114 -147 0
-114 -146 0
-113 -151 0
-114 -153 0
-112 -151 0
-113 -152 0
-114 -154 0
-115 -155 0
-111 -152 0
-111 -173 0
-115 -173 0
-112 -174 0
-115 -171 0
-115 -172 0
-115 -175 0
-113 -175 0
-112 -178 0
-113 -176 0
-111 -179 0
-112 -177 0
-111 -178 0
-113 -179 0
-113 -180 0
-112 -200 0
-115 -199 0
-115 -198 0
-113 -198 0
-111 -196 0
-114 -196 0
-113 -197 0
-114 -207 0
-113 -210 0
-111 -206 0
-111 -207 0
-111 -208 0
-115 -206 0
-114 -209 0
-113 -223 0
-112 -223 0
-115 -225 0
-113 -221 0
-111 -224 0
-113 -222 0
-115 -224 0
-114 -233 0
-112 -235 0
-111 -232 0
-113 -231 0
-113 -235 0
-112 -232 0
-111 -234 0
-119 -124 0
-118 -124 0
-117 -125 0
-118 -123 0
-117 -122 0
-116 -125 0
-120 -123 0
-116 -128 0
-118 -128 0
-116 -129 0
-120 -130 0
-119 -127 0
-118 -129 0
-119 -126 0
-116 -149 0
-118 -146 0
-116 -148 0
-118 -149 0
-119 -146 0
-117 -148 0
-116 -147 0
-116 -178 0
-120 -177 0
-116 -180 0
-116 -177 0
-119 -177 0
-118 -176 0
-118 -178 0
-117 -239 0
-118 -236 0
-120 -239 0
-117 -238 0
-119 -240 0
-116 -238 0
-117 -236 0
-123 -132 0
-121 -131 0
-121 -133 0
-123 -135 0
-123 -133 0
-121 -132 0
-124 -132 0
-125 -176 0
-123 -176 0
-123 -178 0
-121 -176 0
-123 -179 0
-124 -178 0
-124 -180 0
-123 -182 0
-124 -184 0
-124 -183 0
-123 -183 0
-123 -184 0
-124 -182 0
-121 -182 0
-125 -191 0
-124 -195 0
-124 -194 0
-122 -194 0
-123 -194 0
-125 -194 0
-124 -191 0
-124 -204 0
-123 -204 0
-121 -204 0
-121 -203 0
-125 -202 0
-124 -202 0
-122 -204 0
-124 -207 0
-122 -207 0
-123 -209 0
-125 -207 0
-125 -209 0
-123 -207 0
-121 -207 0
-125 -211 0
-121 -215 0
-125 -213 0
-123 -212 0
-124 -213 0
-124 -214 0
-125 -214 0
-122 -231 0
-124 -234 0
-123 -231 0
-125 -234 0
-122 -235 0
-124 -231 0
-125 -233 0
-123 -242 0
-122 -245 0
-125 -242 0
-125 -241 0
-123 -244 0
-121 -241 0
-125 -243 0
-129 -140 0
-126 -140 0
-130 -138 0
-130 -140 0
-128 -140 0
-130 -139 0
-130 -137 0
-126 -156 0
-129 -159 0
-130 -158 0
-127 -159 0
-130 -156 0
-127 -156 0
-129 -160 0
-130 -166 0
-128 -167 0
-126 -167 0
-127 -166 0
-128 -166 0
-130 -167 0
-126 -168 0
-128 -172 0
-130 -171 0
-129 -171 0
-129 -173 0
-129 -174 0
-127 -173 0
-129 -172 0
-129 -216 0
-130 -220 0
-129 -218 0
-126 -219 0
-129 -217 0
-130 -217 0
-130 -218 0
-128 -225 0
-127 -222 0
-129 -224 0
-129 -225 0
-127 -224 0
-126 -223 0
-130 -222 0
-127 -233 0
-127 -231 0
-128 -233 0
-127 -232 0
-130 -233 0
-127 -234 0
-130 -231 0
-128 -240 0
-127 -239 0
-129 -236 0
-130 -236 0
-128 -238 0
-129 -240 0
-126 -237 0
-127 -249 0
-129 -248 0
-127 -247 0
-130 -248 0
-129 -250 0
-130 -249 0
-129 -246 0
-131 -136 0
-135 -140 0
-135 -136 0
-132 -136 0
-132 -137 0
-134 -138 0
-135 -139 0
-133 -143 0
-134 -142 0
-134 -141 0
-134 -144 0
-135 -141 0
-132 -144 0
-133 -142 0
-135 -147 0
-134 -147 0
-132 -148 0
-135 -148 0
-134 -148 0
-133 -150 0
-131 -150 0
-135 -151 0
-135 -155 0
-131 -154 0
-133 -151 0
-132 -152 0
-133 -154 0
-133 -155 0
-132 -186 0
-132 -188 0
-131 -187 0
-134 -190 0
-133 -187 0
-134 -189 0
-133 -189 0
-135 -192 0
-135 -191 0
-135 -193 0
-133 -195 0
-133 -191 0
-134 -195 0
-131 -194 0
-135 -204 0
-135 -201 0
-132 -204 0
-131 -203 0
-131 -202 0
-131 -201 0
-134 -205 0
-131 -225 0
-132 -221 0
-131 -221 0
-134 -225 0
-133 -223 0
-131 -223 0
-134 -224 0
-131 -243 0
-131 -245 0
-132 -242 0
-132 -245 0
-134 -242 0
-135 -244 0
-133 -244 0
-139 -159 0
-137 -157 0
-139 -157 0
-139 -158 0
-140 -157 0
-140 -158 0
-138 -156 0
-140 -172 0
-138 -174 0
-140 -174 0
-139 -172 0
-136 -174 0
-137 -175 0
-137 -174 0
-140 -187 0
-138 -187 0
-140 -189 0
-137 -189 0
-136 -187 0
-138 -188 0
-139 -190 0
-139 -195 0
-138 -194 0
-140 -191 0
-136 -195 0
-139 -192 0
-136 -191 0
-137 -191 0
-140 -196 0
-139 -197 0
-138 -196 0
-137 -198 0
-139 -200 0
-136 -198 0
-139 -198 0
-138 -204 0
-139 -201 0
-140 -203 0
-139 -204 0
-139 -202 0
-140 -205 0
-136 -205 0
-136 -213 0
-140 -212 0
-138 -213 0
-137 -213 0
-140 -215 0
-136 -212 0
-139 -213 0
-136 -223 0
-136 -222 0
-140 -225 0
-139 -221 0
-138 -224 0
-139 -222 0
-137 -222 0
-144 -156 0
-145 -158 0
-145 -160 0
-143 -158 0
-145 -157 0
-145 -156 0
-145 -159 0
-145 -161 0
-143 -165 0
-143 -161 0
-141 -165 0
-145 -163 0
-144 -164 0
-141 -162 0
-145 -192 0
-145 -194 0
-141 -192 0
-145 -193 0
-143 -191 0
-142 -191 0
-141 -195 0
-144 -203 0
-143 -204 0
-142 -202 0
-143 -201 0
-143 -205 0
-141 -203 0
-141 -201 0
-142 -208 0
-143 -210 0
-142 -209 0
-141 -209 0
-143 -208 0
-143 -207 0
-144 -210 0
-145 -220 0
-143 -220 0
-145 -218 0
-145 -216 0
-143 -219 0
-141 -219 0
-141 -217 0
-141 -229 0
-141 -227 0
-143 -229 0
-141 -228 0
-141 -230 0
-144 -226 0
-142 -229 0
-144 -250 0
-144 -249 0
-142 -250 0
-143 -246 0
-144 -247 0
-141 -246 0
-141 -247 0
-148 -179 0
-148 -176 0
-147 -176 0
-149 -179 0
-150 -180 0
-146 -180 0
-148 -180 0
-146 -183 0
-146 -181 0
-147 -183 0
-150 -185 0
-146 -184 0
-149 -182 0
-146 -185 0
-149 -188 0
-150 -187 0
-149 -186 0
-150 -188 0
-148 -189 0
-147 -190 0
-148 -187 0
-149 -198 0
-150 -196 0
-148 -198 0
-149 -197 0
-146 -200 0
-147 -200 0
-146 -196 0
-146 -206 0
-148 -208 0
-149 -210 0
-150 -208 0
-147 -207 0
-146 -208 0
-147 -209 0
-150 -214 0
-146 -211 0
-150 -211 0
-147 -212 0
-149 -213 0
-146 -214 0
-148 -212 0
-150 -219 0
-147 -219 0
-149 -217 0
-146 -217 0
-147 -220 0
-150 -220 0
-146 -220 0
-151 -160 0
-152 -156 0
-151 -157 0
-151 -159 0
-151 -158 0
-153 -159 0
-154 -159 0
-152 -165 0
-154 -163 0
-154 -165 0
-154 -161 0
-152 -161 0
-155 -163 0
-153 -165 0
-153 -181 0
-155 -182 0
-151 -185 0
-154 -185 0
-153 -182 0
-153 -184 0
-155 -184 0
-155 -195 0
-154 -193 0
-153 -191 0
-153 -195 0
-152 -191 0
-151 -191 0
-153 -192 0
-154 -202 0
-152 -202 0
-151 -203 0
-152 -205 0
-154 -203 0
-152 -201 0
-154 -204 0
-155 -211 0
-151 -215 0
-154 -211 0
-154 -215 0
-153 -215 0
-153 -212 0
-154 -213 0
-153 -225 0
-152 -225 0
-153 -221 0
-153 -222 0
-151 -221 0
-155 -222 0
-155 -225 0
-154 -235 0
-152 -235 0
-155 -233 0
-153 -235 0
-151 -235 0
-154 -231 0
-152 -232 0
-156 -161 0
-156 -162 0
-160 -164 0
-160 -163 0
-157 -163 0
-158 -163 0
-157 -161 0
-156 -180 0
-160 -176 0
-160 -177 0
-159 -180 0
-157 -180 0
-159 -179 0
-160 -180 0
-157 -185 0
-159 -183 0
-159 -181 0
-158 -185 0
-157 -182 0
-159 -184 0
-157 -181 0
-156 -207 0
-159 -206 0
-159 -210 0
-158 -210 0
-156 -206 0
-156 -210 0
-160 -209 0
-164 -178 0
-163 -176 0
-161 -176 0
-164 -180 0
-161 -180 0
-163 -180 0
-161 -179 0
-162 -185 0
-163 -183 0
-165 -182 0
-165 -184 0
-164 -182 0
-161 -185 0
-164 -183 0
-164 -214 0
-163 -211 0
-165 -214 0
-162 -211 0
-164 -211 0
-161 -213 0
-164 -212 0
-162 -217 0
-164 -216 0
-165 -220 0
-163 -220 0
-162 -216 0
-161 -220 0
-164 -219 0
-163 -233 0
-165 -233 0
-165 -231 0
-164 -233 0
-163 -231 0
-164 -232 0
-162 -231 0
-166 -209 0
-170 -209 0
-167 -210 0
-169 -208 0
-167 -207 0
-166 -208 0
-170 -210 0
-167 -215 0
-169 -212 0
-170 -212 0
-167 -214 0
-167 -211 0
-166 -215 0
-168 -214 0
-169 -235 0
-166 -233 0
-166 -235 0
-169 -231 0
-168 -232 0
-170 -233 0
-167 -232 0
-166 -236 0
-167 -239 0
-167 -240 0
-167 -236 0
-168 -238 0
-170 -237 0
-169 -238 0
-171 -180 0
-172 -179 0
-172 -176 0
-174 -178 0
-174 -180 0
-172 -177 0
-175 -176 0
-171 -184 0
-175 -184 0
-173 -181 0
-174 -185 0
-174 -181 0
-173 -184 0
-175 -185 0
-175 -201 0
-174 -203 0
-173 -201 0
-171 -204 0
-171 -205 0
-173 -203 0
-171 -201 0
-171 -210 0
-172 -208 0
-174 -208 0
-173 -207 0
-171 -209 0
-174 -209 0
-175 -207 0
-172 -215 0
-172 -214 0
-175 -214 0
-171 -211 0
-174 -215 0
-173 -213 0
-173 -212 0
-172 -224 0
-175 -224 0
-172 -223 0
-172 -221 0
-174 -224 0
-174 -221 0
-173 -223 0
-173 -228 0
-171 -227 0
-174 -227 0
-174 -230 0
-171 -228 0
-175 -226 0
-172 -226 0
-171 -234 0
-174 -232 0
-173 -234 0
-173 -233 0
-175 -232 0
-171 -235 0
-174 -234 0
-180 -184 0
-179 -184 0
-179 -185 0
-178 -181 0
-178 -184 0
-178 -185 0
-176 -183 0
-177 -188 0
-179 -188 0
-177 -186 0
-180 -189 0
-176 -186 0
-179 -187 0
-179 -186 0
-179 -204 0
-177 -201 0
-180 -201 0
-180 -205 0
-177 -205 0
-176 -205 0
-180 -204 0
-180 -228 0
-180 -230 0
-178 -226 0
-179 -227 0
-178 -230 0
-179 -230 0
-178 -228 0
-176 -232 0
-177 -233 0
-179 -232 0
-179 -233 0
-180 -231 0
-176 -234 0
-179 -235 0
-183 -196 0
-185 -196 0
-182 -200 0
-181 -197 0
-184 -199 0
-184 -197 0
-182 -197 0
-183 -205 0
-183 -204 0
-184 -204 0
-181 -205 0
-184 -203 0
-181 -201 0
-181 -202 0
-185 -212 0
-185 -215 0
-184 -215 0
-185 -214 0
-181 -214 0
-185 -211 0
-183 -214 0
-184 -224 0
-183 -224 0
-181 -225 0
-185 -223 0
-185 -225 0
-183 -223 0
-181 -222 0
-185 -234 0
-185 -231 0
-183 -232 0
-182 -235 0
-182 -234 0
-184 -231 0
-181 -232 0
-181 -238 0
-182 -238 0
-184 -238 0
-185 -239 0
-182 -237 0
-183 -238 0
-181 -240 0
-185 -242 0
-182 -244 0
-184 -244 0
-182 -241 0
-184 -241 0
-185 -241 0
-184 -245 0
-187 -218 0
-188 -217 0
-188 -216 0
-189 -216 0
-189 -220 0
-190 -219 0
-186 -218 0
-188 -224 0
-187 -225 0
-189 -222 0
-186 -221 0
-189 -223 0
-188 -223 0
-190 -223 0
-186 -238 0
-190 -240 0
-190 -239 0
-186 -236 0
-187 -236 0
-189 -236 0
-190 -238 0
-195 -234 0
-193 -233 0
-191 -234 0
-194 -234 0
-195 -232 0
-194 -232 0
-193 -232 0
-191 -244 0
-193 -243 0
-192 -244 0
-191 -242 0
-194 -244 0
-191 -245 0
-193 -245 0
-199 -203 0
-199 -201 0
-200 -203 0
-197 -205 0
-198 -203 0
-199 -205 0
-198 -204 0
-198 -219 0
-199 -216 0
-197 -218 0
-199 -217 0
-196 -220 0
-198 -217 0
-196 -218 0
-200 -222 0
-200 -221 0
-199 -225 0
-196 -223 0
-199 -224 0
-200 -223 0
-197 -224 0
-200 -232 0
-196 -232 0
-199 -232 0
-197 -234 0
-196 -231 0
-199 -235 0
-198 -231 0
-197 -242 0
-197 -241 0
-196 -244 0
-200 -241 0
-200 -243 0
-199 -245 0
-198 -241 0
-203 -225 0
-205 -223 0
-204 -221 0
-204 -222 0
-205 -222 0
-205 -225 0
-204 -223 0
-202 -239 0
-205 -236 0
-204 -238 0
-201 -240 0
-201 -239 0
-203 -239 0
-202 -236 0
-209 -239 0
-209 -237 0
-209 -240 0
-208 -239 0
-210 -236 0
-208 -238 0
-206 -239 0
-212 -221 0
-214 -225 0
-213 -222 0
-212 -225 0
-213 -225 0
-211 -221 0
-215 -221 0
-213 -245 0
-214 -243 0
-214 -244 0
-215 -244 0
-211 -245 0
-213 -243 0
-215 -243 0
-218 -249 0
-217 -250 0
-216 -250 0
-219 -250 0
-216 -248 0
-217 -248 0
-220 -250 0
-225 -240 0
-222 -237 0
-225 -237 0
-225 -239 0
-221 -236 0
-225 -238 0
-222 -236 0
-230 -243 0
-230 -241 0
-229 -244 0
-230 -245 0
-229 -243 0
-228 -242 0
-227 -242 0
-231 -237 0
-232 -236 0
-231 -236 0
-234 -236 0
-234 -239 0
-235 -237 0
-235 -236 0
-234 -245 0
-235 -241 0
-233 -241 0
-235 -242 0
-231 -244 0
-231 -243 0
-232 -241 0
-243 -248 0
-243 -250 0
-241 -247 0
-242 -247 0
-243 -249 0
-244 -246 0
-244 -247 0
